#POSCAR generated by IF_master 
1
20.7404643534863808 0.0000000000000005 0.0000000000000004 
0.5270314233705917 5.1510638276862686 -0.0000000000000001 
-0.0000000000000074 -0.0000000000000113 24.0251391500000047 
Al O Zn 
80 152 32 
Direct
0.2206684984256283 0.7958080000000001 0.1000000000000000
0.5612567621585708 0.7958080000000002 0.1000000000000001
0.2206684984256283 0.7958080000000000 0.3000000000000000
0.5612567621585708 0.7958080000000000 0.3000000000000001
0.2206684984256284 0.7958080000000001 0.5000000000000002
0.5612567621585707 0.7958080000000001 0.5000000000000002
0.2206684984256284 0.7958079999999998 0.7000000000000002
0.5612567621585708 0.7958079999999997 0.7000000000000002
0.2206684984256284 0.7958080000000000 0.9000000000000005
0.5612567621585707 0.7958079999999998 0.9000000000000005
0.0503743665591571 0.2958080000000001 0.0000000000000000
0.3909626302920995 0.2958080000000001 0.0000000000000000
0.0503743665591571 0.2958080000000000 0.2000000000000001
0.3909626302920995 0.2958080000000000 0.2000000000000001
0.0503743665591572 0.2958080000000000 0.4000000000000001
0.3909626302920995 0.2958080000000000 0.4000000000000001
0.0503743665591572 0.2958079999999999 0.6000000000000001
0.3909626302920997 0.2958079999999999 0.6000000000000001
0.0503743665591572 0.2958079999999998 0.8000000000000003
0.3909626302920997 0.2958079999999998 0.8000000000000003
0.1199197653073141 0.7041919999999999 0.0000000000000000
0.4605080290402565 0.7041919999999999 0.0000000000000000
0.2902138971737853 0.2041919999999999 0.1000000000000000
0.6308021609067277 0.2041919999999999 0.1000000000000000
0.1199197653073141 0.7041919999999999 0.2000000000000001
0.4605080290402565 0.7041919999999999 0.2000000000000000
0.2902138971737853 0.2041919999999998 0.3000000000000001
0.6308021609067277 0.2041919999999998 0.3000000000000000
0.1199197653073141 0.7041919999999998 0.4000000000000001
0.4605080290402565 0.7041919999999998 0.4000000000000001
0.2902138971737854 0.2041919999999998 0.5000000000000002
0.6308021609067276 0.2041919999999998 0.5000000000000001
0.1199197653073141 0.7041919999999997 0.6000000000000001
0.4605080290402565 0.7041919999999997 0.6000000000000001
0.2902138971737853 0.2041919999999997 0.7000000000000004
0.6308021609067277 0.2041919999999997 0.7000000000000004
0.1199197653073141 0.7041919999999997 0.8000000000000004
0.4605080290402565 0.7041919999999997 0.8000000000000004
0.2902138971737854 0.2041919999999996 0.9000000000000005
0.6308021609067278 0.2041919999999996 0.9000000000000005
0.2206684984256283 0.2958079999999998 0.0000000000000001
0.5612567621585707 0.2958079999999998 0.0000000000000001
0.0503743665591570 0.7958079999999998 0.1000000000000000
0.3909626302920995 0.7958079999999998 0.1000000000000001
0.2206684984256282 0.2958079999999997 0.2000000000000001
0.5612567621585708 0.2958079999999997 0.2000000000000001
0.0503743665591571 0.7958079999999996 0.3000000000000001
0.3909626302920995 0.7958079999999997 0.3000000000000001
0.2206684984256283 0.2958079999999997 0.4000000000000001
0.5612567621585708 0.2958079999999998 0.4000000000000001
0.0503743665591571 0.7958079999999997 0.5000000000000001
0.3909626302920996 0.7958079999999997 0.5000000000000002
0.2206684984256282 0.2958079999999996 0.6000000000000002
0.5612567621585709 0.2958079999999996 0.6000000000000002
0.0503743665591571 0.7958079999999996 0.7000000000000002
0.3909626302920996 0.7958079999999996 0.7000000000000002
0.2206684984256283 0.2958079999999996 0.8000000000000004
0.5612567621585708 0.2958079999999996 0.8000000000000004
0.0503743665591571 0.7958079999999997 0.9000000000000004
0.3909626302920995 0.7958079999999997 0.9000000000000004
0.2902138971737853 0.7041920000000000 0.0000000000000001
0.6308021609067278 0.7041919999999999 0.0000000000000001
0.2902138971737852 0.7041919999999999 0.2000000000000001
0.6308021609067278 0.7041919999999999 0.2000000000000001
0.2902138971737853 0.7041919999999999 0.4000000000000002
0.6308021609067277 0.7041919999999999 0.4000000000000002
0.2902138971737853 0.7041919999999999 0.6000000000000002
0.6308021609067278 0.7041919999999998 0.6000000000000002
0.2902138971737853 0.7041919999999999 0.8000000000000004
0.6308021609067277 0.7041919999999998 0.8000000000000004
0.1199197653073140 0.2041920000000000 0.1000000000000001
0.4605080290402565 0.2041920000000000 0.1000000000000001
0.1199197653073140 0.2041919999999999 0.3000000000000002
0.4605080290402565 0.2041920000000000 0.3000000000000002
0.1199197653073141 0.2041919999999999 0.5000000000000002
0.4605080290402565 0.2041919999999999 0.5000000000000002
0.1199197653073141 0.2041919999999998 0.7000000000000002
0.4605080290402565 0.2041919999999998 0.7000000000000002
0.1199197653073141 0.2041919999999997 0.9000000000000004
0.4605080290402565 0.2041919999999997 0.9000000000000004
0.3075760650940995 0.8469269999999998 0.0693854000000000
0.6481643288270419 0.8469269999999998 0.0693854000000000
0.3075760650940995 0.8469269999999999 0.2693854000000001
0.6481643288270419 0.8469269999999999 0.2693854000000001
0.3075760650940995 0.8469269999999997 0.4693854000000001
0.6481643288270418 0.8469269999999997 0.4693854000000001
0.3075760650940996 0.8469269999999997 0.6693854000000001
0.6481643288270418 0.8469269999999995 0.6693854000000001
0.3075760650940996 0.8469269999999997 0.8693854000000004
0.6481643288270418 0.8469269999999997 0.8693854000000004
0.1372819332276283 0.3469269999999999 0.1693854000000000
0.4778701969605706 0.3469269999999999 0.1693854000000000
0.1372819332276283 0.3469269999999999 0.3693854000000001
0.4778701969605706 0.3469269999999999 0.3693854000000000
0.1372819332276284 0.3469269999999998 0.5693854000000002
0.4778701969605706 0.3469269999999998 0.5693854000000002
0.1372819332276284 0.3469269999999997 0.7693854000000002
0.4778701969605708 0.3469269999999997 0.7693854000000002
0.1372819332276284 0.3469269999999997 0.9693854000000004
0.4778701969605707 0.3469269999999997 0.9693854000000005
0.3075760650940995 0.3469269999999999 0.0306146000000001
0.6481643288270418 0.3469269999999999 0.0306146000000001
0.1372819332276283 0.8469269999999999 0.1306146000000001
0.4778701969605707 0.8469270000000000 0.1306146000000001
0.3075760650940995 0.3469269999999998 0.2306146000000001
0.6481643288270419 0.3469269999999998 0.2306146000000001
0.1372819332276284 0.8469270000000000 0.3306146000000001
0.4778701969605706 0.8469270000000000 0.3306146000000001
0.3075760650940995 0.3469269999999998 0.4306146000000002
0.6481643288270419 0.3469269999999998 0.4306146000000002
0.1372819332276284 0.8469269999999997 0.5306146000000003
0.4778701969605706 0.8469269999999995 0.5306146000000003
0.3075760650940995 0.3469269999999998 0.6306146000000002
0.6481643288270419 0.3469269999999998 0.6306146000000002
0.1372819332276284 0.8469269999999998 0.7306146000000002
0.4778701969605708 0.8469269999999997 0.7306146000000002
0.3075760650940995 0.3469269999999998 0.8306146000000003
0.6481643288270420 0.3469269999999997 0.8306146000000003
0.1372819332276284 0.8469269999999997 0.9306146000000002
0.4778701969605707 0.8469269999999997 0.9306146000000002
0.2033063305053141 0.1530730000000000 0.0693854000000000
0.5438945942382565 0.1530729999999999 0.0693854000000000
0.0330121986388429 0.6530729999999999 0.1693854000000000
0.3736004623717853 0.6530730000000000 0.1693854000000000
0.2033063305053142 0.1530729999999999 0.2693854000000001
0.5438945942382565 0.1530729999999999 0.2693854000000001
0.0330121986388429 0.6530729999999999 0.3693854000000001
0.3736004623717853 0.6530729999999999 0.3693854000000001
0.2033063305053142 0.1530729999999998 0.4693854000000001
0.5438945942382565 0.1530729999999998 0.4693854000000001
0.0330121986388430 0.6530729999999998 0.5693854000000002
0.3736004623717854 0.6530729999999998 0.5693854000000002
0.2033063305053142 0.1530729999999998 0.6693854000000001
0.5438945942382567 0.1530729999999998 0.6693854000000001
0.0330121986388430 0.6530729999999997 0.7693854000000001
0.3736004623717853 0.6530729999999997 0.7693854000000001
0.2033063305053142 0.1530729999999998 0.8693854000000002
0.5438945942382566 0.1530729999999997 0.8693854000000002
0.0330121986388430 0.6530729999999998 0.9693854000000003
0.3736004623717853 0.6530729999999997 0.9693854000000002
0.0851470659332356 0.5000000000000000 0.0612292000000001
0.4257353296661779 0.5000000000000001 0.0612292000000001
0.2554411977997068 0.0000000000000000 0.1612292000000001
0.5960294615326491 0.0000000000000000 0.1612292000000001
0.0851470659332356 0.4999999999999999 0.2612292000000001
0.4257353296661779 0.5000000000000000 0.2612292000000001
0.2554411977997068 0.0000000000000000 0.3612292000000001
0.5960294615326492 0.0000000000000000 0.3612292000000001
0.0851470659332356 0.4999999999999999 0.4612292000000001
0.4257353296661779 0.5000000000000000 0.4612292000000001
0.2554411977997068 1.0000000000000000 0.5612292000000002
0.5960294615326492 1.0000000000000000 0.5612292000000002
0.0851470659332356 0.4999999999999999 0.6612292000000002
0.4257353296661780 0.4999999999999998 0.6612292000000003
0.2554411977997069 0.9999999999999999 0.7612292000000003
0.5960294615326491 0.9999999999999999 0.7612292000000003
0.0851470659332357 0.4999999999999999 0.8612292000000004
0.4257353296661779 0.4999999999999998 0.8612292000000004
0.2554411977997068 0.9999999999999999 0.9612292000000003
0.5960294615326494 0.9999999999999998 0.9612292000000003
0.2554411977997068 0.4999999999999998 0.1387708000000000
0.5960294615326491 0.4999999999999998 0.1387708000000000
0.2554411977997068 0.4999999999999998 0.3387708000000001
0.5960294615326492 0.4999999999999998 0.3387708000000001
0.2554411977997069 0.4999999999999997 0.5387708000000001
0.5960294615326491 0.4999999999999997 0.5387708000000001
0.2554411977997069 0.4999999999999998 0.7387708000000003
0.5960294615326492 0.4999999999999997 0.7387708000000003
0.2554411977997069 0.4999999999999996 0.9387708000000003
0.5960294615326494 0.4999999999999997 0.9387708000000003
0.0851470659332356 1.0000000000000000 0.0387708000000000
0.4257353296661780 1.0000000000000000 0.0387708000000000
0.0851470659332356 0.9999999999999999 0.2387708000000001
0.4257353296661779 0.9999999999999999 0.2387708000000001
0.0851470659332356 0.9999999999999999 0.4387708000000001
0.4257353296661779 0.9999999999999999 0.4387708000000001
0.0851470659332357 0.9999999999999998 0.6387708000000001
0.4257353296661781 0.9999999999999998 0.6387708000000001
0.0851470659332357 0.9999999999999998 0.8387708000000003
0.4257353296661782 0.9999999999999998 0.8387708000000003
0.2033063305053141 0.6530730000000000 0.0306146000000000
0.5438945942382566 0.6530730000000000 0.0306146000000000
0.2033063305053141 0.6530729999999999 0.2306146000000001
0.5438945942382566 0.6530729999999999 0.2306146000000001
0.2033063305053142 0.6530729999999999 0.4306146000000002
0.5438945942382565 0.6530730000000000 0.4306146000000002
0.2033063305053142 0.6530729999999997 0.6306146000000001
0.5438945942382565 0.6530729999999997 0.6306146000000002
0.2033063305053142 0.6530729999999998 0.8306146000000002
0.5438945942382566 0.6530729999999997 0.8306146000000002
0.0330121986388429 0.1530730000000000 0.1306146000000001
0.3736004623717853 0.1530730000000000 0.1306146000000001
0.0330121986388429 0.1530729999999999 0.3306146000000001
0.3736004623717853 0.1530729999999999 0.3306146000000001
0.0330121986388430 0.1530729999999999 0.5306146000000003
0.3736004623717854 0.1530729999999999 0.5306146000000003
0.0330121986388430 0.1530729999999998 0.7306146000000002
0.3736004623717854 0.1530729999999998 0.7306146000000002
0.0330121986388430 0.1530729999999998 0.9306146000000002
0.3736004623717853 0.1530729999999998 0.9306146000000002
0.7608823955994137 0.5877420906441984 0.9583333333333335
0.9202941318664715 0.5227502719325955 0.9583333333333335
0.6811765274658850 0.6202379999999998 0.8333333333333334
0.8405882637329426 0.5552461812883970 0.8333333333333336
0.7608823955994138 0.5877420906441985 0.7083333333333334
0.9202941318664714 0.5227502719325955 0.7083333333333334
0.6811765274658850 0.6202379999999998 0.5833333333333335
0.8405882637329426 0.5552461812883969 0.5833333333333335
0.7608823955994137 0.5877420906441984 0.4583333333333334
0.9202941318664711 0.5227502719325954 0.4583333333333334
0.6811765274658849 0.6202379999999998 0.3333333333333333
0.8405882637329425 0.5552461812883969 0.3333333333333334
0.7608823955994137 0.5877420906441982 0.2083333333333333
0.9202941318664712 0.5227502719325954 0.2083333333333334
0.6811765274658849 0.6202379999999998 0.0833333333333334
0.8405882637329424 0.5552461812883970 0.0833333333333334
0.6811765274658849 0.1202379999999999 0.9166666666666667
0.8405882637329423 0.0552461812883970 0.9166666666666667
0.7608823955994137 0.0877420906441985 0.7916666666666667
0.9202941318664711 0.0227502719325955 0.7916666666666667
0.6811765274658849 0.1202379999999999 0.6666666666666666
0.8405882637329424 0.0552461812883970 0.6666666666666667
0.7608823955994136 0.0877420906441985 0.5416666666666667
0.9202941318664712 0.0227502719325955 0.5416666666666667
0.6811765274658849 0.1202379999999999 0.4166666666666667
0.8405882637329425 0.0552461812883970 0.4166666666666667
0.7608823955994135 0.0877420906441985 0.2916666666666667
0.9202941318664712 0.0227502719325955 0.2916666666666667
0.6811765274658848 0.1202379999999999 0.1666666666666666
0.8405882637329424 0.0552461812883970 0.1666666666666667
0.7608823955994136 0.0877420906441984 0.0416666666666667
0.9202941318664714 0.0227502719325955 0.0416666666666667
0.7608823955994138 0.9669560906441981 0.9583333333333335
0.9202941318664712 0.9019642719325951 0.9583333333333335
0.6811765274658849 0.9994519999999995 0.8333333333333334
0.8405882637329425 0.9344601812883966 0.8333333333333336
0.7608823955994137 0.9669560906441982 0.7083333333333334
0.9202941318664714 0.9019642719325953 0.7083333333333334
0.6811765274658850 0.9994519999999996 0.5833333333333335
0.8405882637329426 0.9344601812883966 0.5833333333333335
0.7608823955994136 0.9669560906441981 0.4583333333333334
0.9202941318664712 0.9019642719325951 0.4583333333333334
0.6811765274658849 0.9994519999999997 0.3333333333333333
0.8405882637329425 0.9344601812883968 0.3333333333333334
0.7608823955994136 0.9669560906441980 0.2083333333333334
0.9202941318664712 0.9019642719325950 0.2083333333333334
0.6811765274658849 0.9994519999999997 0.0833333333333334
0.8405882637329424 0.9344601812883967 0.0833333333333334
0.6811765274658849 0.4994519999999999 0.9166666666666667
0.8405882637329424 0.4344601812883970 0.9166666666666667
0.7608823955994136 0.4669560906441984 0.7916666666666667
0.9202941318664714 0.4019642719325955 0.7916666666666667
0.6811765274658849 0.4994519999999999 0.6666666666666666
0.8405882637329424 0.4344601812883969 0.6666666666666667
0.7608823955994135 0.4669560906441984 0.5416666666666667
0.9202941318664712 0.4019642719325954 0.5416666666666667
0.6811765274658848 0.4994519999999998 0.4166666666666667
0.8405882637329425 0.4344601812883969 0.4166666666666667
0.7608823955994137 0.4669560906441984 0.2916666666666667
0.9202941318664711 0.4019642719325954 0.2916666666666667
0.6811765274658848 0.4994519999999998 0.1666666666666666
0.8405882637329424 0.4344601812883970 0.1666666666666667
0.7608823955994136 0.4669560906441984 0.0416666666666667
0.9202941318664711 0.4019642719325954 0.0416666666666667
